solution status: optimal solution found
objective value:                                   19
one.thingy.devices[0].thingy.v6_y                    3 	(obj:0)
one.thingy.devices[1].thingy.v5_y                    4 	(obj:0)
one.thingy.devices[3].thingy.v6_y                    1 	(obj:0)
one.thingy.devices[3].thingy.v6_z                    1 	(obj:0)
one.thingy.devices[0].thingy.v5_y                    3 	(obj:0)
one.thingy.devices[0].thingy.v5_z                   -1 	(obj:0)
one.ctrl_a[4].hole_y                               -1 	(obj:0)
one.ctrl_a[4].hole_z                               -4 	(obj:0)
one.thingy.devices[1].thingy.v6_y                    3 	(obj:0)
one.thingy.devices[1].thingy.v6_z                    1 	(obj:0)
one.thingy.devices[2].thingy.v5_y                    2 	(obj:0)
one.thingy.devices[2].thingy.v5_z                    1 	(obj:0)
one.thingy.devices[2].thingy.v6_y                    1 	(obj:0)
one.thingy.devices[2].thingy.v6_z                    2 	(obj:0)
one.thingy.devices[3].thingy.v5_z                    1 	(obj:0)
one.ctrl_a[4].flush_y                              -3 	(obj:0)
one.ctrl_a[4].flush_z                              -3 	(obj:0)
x29                                                 1 	(obj:1)
x31                                                 1 	(obj:1)
x32                                                 2 	(obj:1)
x37                                                 1 	(obj:1)
x38                                                 2 	(obj:1)
x43                                                 2 	(obj:1)
x44                                                 2 	(obj:1)
x48                                                 1 	(obj:1)
x55                                                 1 	(obj:1)
x57                                                 1 	(obj:1)
x58                                                 2 	(obj:1)
x69                                                 1 	(obj:1)
x70                                                 2 	(obj:1)
